Route #1: 26 38 65 11 66 59 14 53 7
Route #2: 12 72 58 10 31 55 25 9 39 40 17
Route #3: 6 33 16 63 23 49 24 18 50 32 44 3 51
Route #4: 73 1 43 56 41 42 64 22 61 21 28 74
Route #5: 30 48 47 5 37 20 70 60 71 36 69 62 2
Route #6: 34 52 27 45 29 15 57 13 54 19 35 8 46
Route #7: 67 4 68 75
Cost 719